p cnf 296 896
33 0
34 -98 0
66 -98 0
-34 -66 98 0
-34 -66 -99 0
34 66 -99 0
-34 66 99 0
34 -66 99 0
-35 -67 100 0
-35 -98 100 0
-67 -98 100 0
35 67 -100 0
35 98 -100 0
67 98 -100 0
35 -100 -101 0
67 -100 -101 0
98 -100 -101 0
-35 100 101 0
-67 100 101 0
-98 100 101 0
-35 -67 -98 101 0
35 67 98 -101 0
-36 -68 102 0
-36 -100 102 0
-68 -100 102 0
36 68 -102 0
36 100 -102 0
68 100 -102 0
36 -102 -103 0
68 -102 -103 0
100 -102 -103 0
-36 102 103 0
-68 102 103 0
-100 102 103 0
-36 -68 -100 103 0
36 68 100 -103 0
-37 -69 104 0
-37 -102 104 0
-69 -102 104 0
37 69 -104 0
37 102 -104 0
69 102 -104 0
37 -104 -105 0
69 -104 -105 0
102 -104 -105 0
-37 104 105 0
-69 104 105 0
-102 104 105 0
-37 -69 -102 105 0
37 69 102 -105 0
-38 -70 106 0
-38 -104 106 0
-70 -104 106 0
38 70 -106 0
38 104 -106 0
70 104 -106 0
38 -106 -107 0
70 -106 -107 0
104 -106 -107 0
-38 106 107 0
-70 106 107 0
-104 106 107 0
-38 -70 -104 107 0
38 70 104 -107 0
-39 -71 108 0
-39 -106 108 0
-71 -106 108 0
39 71 -108 0
39 106 -108 0
71 106 -108 0
39 -108 -109 0
71 -108 -109 0
106 -108 -109 0
-39 108 109 0
-71 108 109 0
-106 108 109 0
-39 -71 -106 109 0
39 71 106 -109 0
-40 -72 110 0
-40 -108 110 0
-72 -108 110 0
40 72 -110 0
40 108 -110 0
72 108 -110 0
40 -110 -111 0
72 -110 -111 0
108 -110 -111 0
-40 110 111 0
-72 110 111 0
-108 110 111 0
-40 -72 -108 111 0
40 72 108 -111 0
-41 -73 112 0
-41 -110 112 0
-73 -110 112 0
41 73 -112 0
41 110 -112 0
73 110 -112 0
41 -112 -113 0
73 -112 -113 0
110 -112 -113 0
-41 112 113 0
-73 112 113 0
-110 112 113 0
-41 -73 -110 113 0
41 73 110 -113 0
-42 -74 114 0
-42 -112 114 0
-74 -112 114 0
42 74 -114 0
42 112 -114 0
74 112 -114 0
42 -114 -115 0
74 -114 -115 0
112 -114 -115 0
-42 114 115 0
-74 114 115 0
-112 114 115 0
-42 -74 -112 115 0
42 74 112 -115 0
-43 -75 116 0
-43 -114 116 0
-75 -114 116 0
43 75 -116 0
43 114 -116 0
75 114 -116 0
43 -116 -117 0
75 -116 -117 0
114 -116 -117 0
-43 116 117 0
-75 116 117 0
-114 116 117 0
-43 -75 -114 117 0
43 75 114 -117 0
-44 -76 118 0
-44 -116 118 0
-76 -116 118 0
44 76 -118 0
44 116 -118 0
76 116 -118 0
44 -118 -119 0
76 -118 -119 0
116 -118 -119 0
-44 118 119 0
-76 118 119 0
-116 118 119 0
-44 -76 -116 119 0
44 76 116 -119 0
-45 -77 120 0
-45 -118 120 0
-77 -118 120 0
45 77 -120 0
45 118 -120 0
77 118 -120 0
45 -120 -121 0
77 -120 -121 0
118 -120 -121 0
-45 120 121 0
-77 120 121 0
-118 120 121 0
-45 -77 -118 121 0
45 77 118 -121 0
-46 -78 122 0
-46 -120 122 0
-78 -120 122 0
46 78 -122 0
46 120 -122 0
78 120 -122 0
46 -122 -123 0
78 -122 -123 0
120 -122 -123 0
-46 122 123 0
-78 122 123 0
-120 122 123 0
-46 -78 -120 123 0
46 78 120 -123 0
-47 -79 124 0
-47 -122 124 0
-79 -122 124 0
47 79 -124 0
47 122 -124 0
79 122 -124 0
47 -124 -125 0
79 -124 -125 0
122 -124 -125 0
-47 124 125 0
-79 124 125 0
-122 124 125 0
-47 -79 -122 125 0
47 79 122 -125 0
-48 -80 126 0
-48 -124 126 0
-80 -124 126 0
48 80 -126 0
48 124 -126 0
80 124 -126 0
48 -126 -127 0
80 -126 -127 0
124 -126 -127 0
-48 126 127 0
-80 126 127 0
-124 126 127 0
-48 -80 -124 127 0
48 80 124 -127 0
-49 -81 128 0
-49 -126 128 0
-81 -126 128 0
49 81 -128 0
49 126 -128 0
81 126 -128 0
49 -128 -129 0
81 -128 -129 0
126 -128 -129 0
-49 128 129 0
-81 128 129 0
-126 128 129 0
-49 -81 -126 129 0
49 81 126 -129 0
-50 -82 130 0
-50 -128 130 0
-82 -128 130 0
50 82 -130 0
50 128 -130 0
82 128 -130 0
50 -130 -131 0
82 -130 -131 0
128 -130 -131 0
-50 130 131 0
-82 130 131 0
-128 130 131 0
-50 -82 -128 131 0
50 82 128 -131 0
-51 -83 132 0
-51 -130 132 0
-83 -130 132 0
51 83 -132 0
51 130 -132 0
83 130 -132 0
51 -132 -133 0
83 -132 -133 0
130 -132 -133 0
-51 132 133 0
-83 132 133 0
-130 132 133 0
-51 -83 -130 133 0
51 83 130 -133 0
-52 -84 134 0
-52 -132 134 0
-84 -132 134 0
52 84 -134 0
52 132 -134 0
84 132 -134 0
52 -134 -135 0
84 -134 -135 0
132 -134 -135 0
-52 134 135 0
-84 134 135 0
-132 134 135 0
-52 -84 -132 135 0
52 84 132 -135 0
-53 -85 136 0
-53 -134 136 0
-85 -134 136 0
53 85 -136 0
53 134 -136 0
85 134 -136 0
53 -136 -137 0
85 -136 -137 0
134 -136 -137 0
-53 136 137 0
-85 136 137 0
-134 136 137 0
-53 -85 -134 137 0
53 85 134 -137 0
-54 -86 138 0
-54 -136 138 0
-86 -136 138 0
54 86 -138 0
54 136 -138 0
86 136 -138 0
54 -138 -139 0
86 -138 -139 0
136 -138 -139 0
-54 138 139 0
-86 138 139 0
-136 138 139 0
-54 -86 -136 139 0
54 86 136 -139 0
-55 -87 140 0
-55 -138 140 0
-87 -138 140 0
55 87 -140 0
55 138 -140 0
87 138 -140 0
55 -140 -141 0
87 -140 -141 0
138 -140 -141 0
-55 140 141 0
-87 140 141 0
-138 140 141 0
-55 -87 -138 141 0
55 87 138 -141 0
-56 -88 142 0
-56 -140 142 0
-88 -140 142 0
56 88 -142 0
56 140 -142 0
88 140 -142 0
56 -142 -143 0
88 -142 -143 0
140 -142 -143 0
-56 142 143 0
-88 142 143 0
-140 142 143 0
-56 -88 -140 143 0
56 88 140 -143 0
-57 -89 144 0
-57 -142 144 0
-89 -142 144 0
57 89 -144 0
57 142 -144 0
89 142 -144 0
57 -144 -145 0
89 -144 -145 0
142 -144 -145 0
-57 144 145 0
-89 144 145 0
-142 144 145 0
-57 -89 -142 145 0
57 89 142 -145 0
-58 -90 146 0
-58 -144 146 0
-90 -144 146 0
58 90 -146 0
58 144 -146 0
90 144 -146 0
58 -146 -147 0
90 -146 -147 0
144 -146 -147 0
-58 146 147 0
-90 146 147 0
-144 146 147 0
-58 -90 -144 147 0
58 90 144 -147 0
-59 -91 148 0
-59 -146 148 0
-91 -146 148 0
59 91 -148 0
59 146 -148 0
91 146 -148 0
59 -148 -149 0
91 -148 -149 0
146 -148 -149 0
-59 148 149 0
-91 148 149 0
-146 148 149 0
-59 -91 -146 149 0
59 91 146 -149 0
-60 -92 150 0
-60 -148 150 0
-92 -148 150 0
60 92 -150 0
60 148 -150 0
92 148 -150 0
60 -150 -151 0
92 -150 -151 0
148 -150 -151 0
-60 150 151 0
-92 150 151 0
-148 150 151 0
-60 -92 -148 151 0
60 92 148 -151 0
-61 -93 152 0
-61 -150 152 0
-93 -150 152 0
61 93 -152 0
61 150 -152 0
93 150 -152 0
61 -152 -153 0
93 -152 -153 0
150 -152 -153 0
-61 152 153 0
-93 152 153 0
-150 152 153 0
-61 -93 -150 153 0
61 93 150 -153 0
-62 -94 154 0
-62 -152 154 0
-94 -152 154 0
62 94 -154 0
62 152 -154 0
94 152 -154 0
62 -154 -155 0
94 -154 -155 0
152 -154 -155 0
-62 154 155 0
-94 154 155 0
-152 154 155 0
-62 -94 -152 155 0
62 94 152 -155 0
-63 -95 156 0
-63 -154 156 0
-95 -154 156 0
63 95 -156 0
63 154 -156 0
95 154 -156 0
63 -156 -157 0
95 -156 -157 0
154 -156 -157 0
-63 156 157 0
-95 156 157 0
-154 156 157 0
-63 -95 -154 157 0
63 95 154 -157 0
-64 -96 158 0
-64 -156 158 0
-96 -156 158 0
64 96 -158 0
64 156 -158 0
96 156 -158 0
64 -158 -159 0
96 -158 -159 0
156 -158 -159 0
-64 158 159 0
-96 158 159 0
-156 158 159 0
-64 -96 -156 159 0
64 96 156 -159 0
-65 -97 160 0
-65 -158 160 0
-97 -158 160 0
65 97 -160 0
65 158 -160 0
97 158 -160 0
65 -160 -161 0
97 -160 -161 0
158 -160 -161 0
-65 160 161 0
-97 160 161 0
-158 160 161 0
-65 -97 -158 161 0
65 97 158 -161 0
99 -194 0
162 -194 0
-99 -162 194 0
-99 -162 -1 0
99 162 -1 0
-99 162 1 0
99 -162 1 0
-101 -163 195 0
-101 -194 195 0
-163 -194 195 0
101 163 -195 0
101 194 -195 0
163 194 -195 0
101 -195 -2 0
163 -195 -2 0
194 -195 -2 0
-101 195 2 0
-163 195 2 0
-194 195 2 0
-101 -163 -194 2 0
101 163 194 -2 0
-103 -164 196 0
-103 -195 196 0
-164 -195 196 0
103 164 -196 0
103 195 -196 0
164 195 -196 0
103 -196 -3 0
164 -196 -3 0
195 -196 -3 0
-103 196 3 0
-164 196 3 0
-195 196 3 0
-103 -164 -195 3 0
103 164 195 -3 0
-105 -165 197 0
-105 -196 197 0
-165 -196 197 0
105 165 -197 0
105 196 -197 0
165 196 -197 0
105 -197 -4 0
165 -197 -4 0
196 -197 -4 0
-105 197 4 0
-165 197 4 0
-196 197 4 0
-105 -165 -196 4 0
105 165 196 -4 0
-107 -166 198 0
-107 -197 198 0
-166 -197 198 0
107 166 -198 0
107 197 -198 0
166 197 -198 0
107 -198 -5 0
166 -198 -5 0
197 -198 -5 0
-107 198 5 0
-166 198 5 0
-197 198 5 0
-107 -166 -197 5 0
107 166 197 -5 0
-109 -167 199 0
-109 -198 199 0
-167 -198 199 0
109 167 -199 0
109 198 -199 0
167 198 -199 0
109 -199 -6 0
167 -199 -6 0
198 -199 -6 0
-109 199 6 0
-167 199 6 0
-198 199 6 0
-109 -167 -198 6 0
109 167 198 -6 0
-111 -168 200 0
-111 -199 200 0
-168 -199 200 0
111 168 -200 0
111 199 -200 0
168 199 -200 0
111 -200 -7 0
168 -200 -7 0
199 -200 -7 0
-111 200 7 0
-168 200 7 0
-199 200 7 0
-111 -168 -199 7 0
111 168 199 -7 0
-113 -169 201 0
-113 -200 201 0
-169 -200 201 0
113 169 -201 0
113 200 -201 0
169 200 -201 0
113 -201 -8 0
169 -201 -8 0
200 -201 -8 0
-113 201 8 0
-169 201 8 0
-200 201 8 0
-113 -169 -200 8 0
113 169 200 -8 0
-115 -170 202 0
-115 -201 202 0
-170 -201 202 0
115 170 -202 0
115 201 -202 0
170 201 -202 0
115 -202 -9 0
170 -202 -9 0
201 -202 -9 0
-115 202 9 0
-170 202 9 0
-201 202 9 0
-115 -170 -201 9 0
115 170 201 -9 0
-117 -171 203 0
-117 -202 203 0
-171 -202 203 0
117 171 -203 0
117 202 -203 0
171 202 -203 0
117 -203 -10 0
171 -203 -10 0
202 -203 -10 0
-117 203 10 0
-171 203 10 0
-202 203 10 0
-117 -171 -202 10 0
117 171 202 -10 0
-119 -172 204 0
-119 -203 204 0
-172 -203 204 0
119 172 -204 0
119 203 -204 0
172 203 -204 0
119 -204 -11 0
172 -204 -11 0
203 -204 -11 0
-119 204 11 0
-172 204 11 0
-203 204 11 0
-119 -172 -203 11 0
119 172 203 -11 0
-121 -173 205 0
-121 -204 205 0
-173 -204 205 0
121 173 -205 0
121 204 -205 0
173 204 -205 0
121 -205 -12 0
173 -205 -12 0
204 -205 -12 0
-121 205 12 0
-173 205 12 0
-204 205 12 0
-121 -173 -204 12 0
121 173 204 -12 0
-123 -174 206 0
-123 -205 206 0
-174 -205 206 0
123 174 -206 0
123 205 -206 0
174 205 -206 0
123 -206 -13 0
174 -206 -13 0
205 -206 -13 0
-123 206 13 0
-174 206 13 0
-205 206 13 0
-123 -174 -205 13 0
123 174 205 -13 0
-125 -175 207 0
-125 -206 207 0
-175 -206 207 0
125 175 -207 0
125 206 -207 0
175 206 -207 0
125 -207 -14 0
175 -207 -14 0
206 -207 -14 0
-125 207 14 0
-175 207 14 0
-206 207 14 0
-125 -175 -206 14 0
125 175 206 -14 0
-127 -176 208 0
-127 -207 208 0
-176 -207 208 0
127 176 -208 0
127 207 -208 0
176 207 -208 0
127 -208 -15 0
176 -208 -15 0
207 -208 -15 0
-127 208 15 0
-176 208 15 0
-207 208 15 0
-127 -176 -207 15 0
127 176 207 -15 0
-129 -177 209 0
-129 -208 209 0
-177 -208 209 0
129 177 -209 0
129 208 -209 0
177 208 -209 0
129 -209 -16 0
177 -209 -16 0
208 -209 -16 0
-129 209 16 0
-177 209 16 0
-208 209 16 0
-129 -177 -208 16 0
129 177 208 -16 0
-131 -178 210 0
-131 -209 210 0
-178 -209 210 0
131 178 -210 0
131 209 -210 0
178 209 -210 0
131 -210 -17 0
178 -210 -17 0
209 -210 -17 0
-131 210 17 0
-178 210 17 0
-209 210 17 0
-131 -178 -209 17 0
131 178 209 -17 0
-133 -179 211 0
-133 -210 211 0
-179 -210 211 0
133 179 -211 0
133 210 -211 0
179 210 -211 0
133 -211 -18 0
179 -211 -18 0
210 -211 -18 0
-133 211 18 0
-179 211 18 0
-210 211 18 0
-133 -179 -210 18 0
133 179 210 -18 0
-135 -180 212 0
-135 -211 212 0
-180 -211 212 0
135 180 -212 0
135 211 -212 0
180 211 -212 0
135 -212 -19 0
180 -212 -19 0
211 -212 -19 0
-135 212 19 0
-180 212 19 0
-211 212 19 0
-135 -180 -211 19 0
135 180 211 -19 0
-137 -181 213 0
-137 -212 213 0
-181 -212 213 0
137 181 -213 0
137 212 -213 0
181 212 -213 0
137 -213 -20 0
181 -213 -20 0
212 -213 -20 0
-137 213 20 0
-181 213 20 0
-212 213 20 0
-137 -181 -212 20 0
137 181 212 -20 0
-139 -182 214 0
-139 -213 214 0
-182 -213 214 0
139 182 -214 0
139 213 -214 0
182 213 -214 0
139 -214 -21 0
182 -214 -21 0
213 -214 -21 0
-139 214 21 0
-182 214 21 0
-213 214 21 0
-139 -182 -213 21 0
139 182 213 -21 0
-141 -183 215 0
-141 -214 215 0
-183 -214 215 0
141 183 -215 0
141 214 -215 0
183 214 -215 0
141 -215 -22 0
183 -215 -22 0
214 -215 -22 0
-141 215 22 0
-183 215 22 0
-214 215 22 0
-141 -183 -214 22 0
141 183 214 -22 0
-143 -184 216 0
-143 -215 216 0
-184 -215 216 0
143 184 -216 0
143 215 -216 0
184 215 -216 0
143 -216 -23 0
184 -216 -23 0
215 -216 -23 0
-143 216 23 0
-184 216 23 0
-215 216 23 0
-143 -184 -215 23 0
143 184 215 -23 0
-145 -185 217 0
-145 -216 217 0
-185 -216 217 0
145 185 -217 0
145 216 -217 0
185 216 -217 0
145 -217 -24 0
185 -217 -24 0
216 -217 -24 0
-145 217 24 0
-185 217 24 0
-216 217 24 0
-145 -185 -216 24 0
145 185 216 -24 0
-147 -186 218 0
-147 -217 218 0
-186 -217 218 0
147 186 -218 0
147 217 -218 0
186 217 -218 0
147 -218 -25 0
186 -218 -25 0
217 -218 -25 0
-147 218 25 0
-186 218 25 0
-217 218 25 0
-147 -186 -217 25 0
147 186 217 -25 0
-149 -187 219 0
-149 -218 219 0
-187 -218 219 0
149 187 -219 0
149 218 -219 0
187 218 -219 0
149 -219 -26 0
187 -219 -26 0
218 -219 -26 0
-149 219 26 0
-187 219 26 0
-218 219 26 0
-149 -187 -218 26 0
149 187 218 -26 0
-151 -188 220 0
-151 -219 220 0
-188 -219 220 0
151 188 -220 0
151 219 -220 0
188 219 -220 0
151 -220 -27 0
188 -220 -27 0
219 -220 -27 0
-151 220 27 0
-188 220 27 0
-219 220 27 0
-151 -188 -219 27 0
151 188 219 -27 0
-153 -189 221 0
-153 -220 221 0
-189 -220 221 0
153 189 -221 0
153 220 -221 0
189 220 -221 0
153 -221 -28 0
189 -221 -28 0
220 -221 -28 0
-153 221 28 0
-189 221 28 0
-220 221 28 0
-153 -189 -220 28 0
153 189 220 -28 0
-155 -190 222 0
-155 -221 222 0
-190 -221 222 0
155 190 -222 0
155 221 -222 0
190 221 -222 0
155 -222 -29 0
190 -222 -29 0
221 -222 -29 0
-155 222 29 0
-190 222 29 0
-221 222 29 0
-155 -190 -221 29 0
155 190 221 -29 0
-157 -191 223 0
-157 -222 223 0
-191 -222 223 0
157 191 -223 0
157 222 -223 0
191 222 -223 0
157 -223 -30 0
191 -223 -30 0
222 -223 -30 0
-157 223 30 0
-191 223 30 0
-222 223 30 0
-157 -191 -222 30 0
157 191 222 -30 0
-159 -192 224 0
-159 -223 224 0
-192 -223 224 0
159 192 -224 0
159 223 -224 0
192 223 -224 0
159 -224 -31 0
192 -224 -31 0
223 -224 -31 0
-159 224 31 0
-192 224 31 0
-223 224 31 0
-159 -192 -223 31 0
159 192 223 -31 0
-161 -193 225 0
-161 -224 225 0
-193 -224 225 0
161 193 -225 0
161 224 -225 0
193 224 -225 0
161 -225 -32 0
193 -225 -32 0
224 -225 -32 0
-161 225 32 0
-193 225 32 0
-224 225 32 0
-161 -193 -224 32 0
161 193 224 -32 0
-290 -292 -294 0
290 292 -294 0
-290 292 294 0
290 -292 294 0
-291 -293 -295 0
291 293 -295 0
-291 293 295 0
291 -293 295 0
-294 -296 0
-295 -296 0
294 295 296 0
-33 296 0
33 -296 0
c __CPROVER_malloc_is_new_array#1 FALSE
c main::1::y!0@1#1 66 67 68 69 70 71 72 73 74 75 76 77 78 79 80 81 82 83 84 85 86 87 88 89 90 91 92 93 94 95 96 97
c __CPROVER_malloc_object#1 FALSE FALSE FALSE FALSE FALSE FALSE FALSE FALSE FALSE FALSE FALSE FALSE FALSE FALSE FALSE FALSE FALSE FALSE FALSE FALSE FALSE FALSE FALSE FALSE FALSE FALSE FALSE FALSE FALSE FALSE FALSE FALSE
c main::1::x!0@1#1 34 35 36 37 38 39 40 41 42 43 44 45 46 47 48 49 50 51 52 53 54 55 56 57 58 59 60 61 62 63 64 65
c main::1::__return_value!0@1#1 226 227 228 229 230 231 232 233 234 235 236 237 238 239 240 241 242 243 244 245 246 247 248 249 250 251 252 253 254 255 256 257
c __CPROVER_deallocated#1 FALSE FALSE FALSE FALSE FALSE FALSE FALSE FALSE FALSE FALSE FALSE FALSE FALSE FALSE FALSE FALSE FALSE FALSE FALSE FALSE FALSE FALSE FALSE FALSE FALSE FALSE FALSE FALSE FALSE FALSE FALSE FALSE
c main::1::z!0@1#1 162 163 164 165 166 167 168 169 170 171 172 173 174 175 176 177 178 179 180 181 182 183 184 185 186 187 188 189 190 191 192 193
c __CPROVER_malloc_size#1 FALSE FALSE FALSE FALSE FALSE FALSE FALSE FALSE FALSE FALSE FALSE FALSE FALSE FALSE FALSE FALSE FALSE FALSE FALSE FALSE FALSE FALSE FALSE FALSE FALSE FALSE FALSE FALSE FALSE FALSE FALSE FALSE
c __CPROVER_dead_object#1 FALSE FALSE FALSE FALSE FALSE FALSE FALSE FALSE FALSE FALSE FALSE FALSE FALSE FALSE FALSE FALSE FALSE FALSE FALSE FALSE FALSE FALSE FALSE FALSE FALSE FALSE FALSE FALSE FALSE FALSE FALSE FALSE
c main::1::o!0@1#1 258 259 260 261 262 263 264 265 266 267 268 269 270 271 272 273 274 275 276 277 278 279 280 281 282 283 284 285 286 287 288 289
c __CPROVER_memory_leak#1 FALSE FALSE FALSE FALSE FALSE FALSE FALSE FALSE FALSE FALSE FALSE FALSE FALSE FALSE FALSE FALSE FALSE FALSE FALSE FALSE FALSE FALSE FALSE FALSE FALSE FALSE FALSE FALSE FALSE FALSE FALSE FALSE
c main::1::o!0@1#2 1 2 3 4 5 6 7 8 9 10 11 12 13 14 15 16 17 18 19 20 21 22 23 24 25 26 27 28 29 30 31 32
c __CPROVER_next_thread_id#1 FALSE FALSE FALSE FALSE FALSE FALSE FALSE FALSE FALSE FALSE FALSE FALSE FALSE FALSE FALSE FALSE FALSE FALSE FALSE FALSE FALSE FALSE FALSE FALSE FALSE FALSE FALSE FALSE FALSE FALSE FALSE FALSE
c main::1::__return_value!0@1#2 1 2 3 4 5 6 7 8 9 10 11 12 13 14 15 16 17 18 19 20 21 22 23 24 25 26 27 28 29 30 31 32
c __CPROVER_pipe_count#1 FALSE FALSE FALSE FALSE FALSE FALSE FALSE FALSE FALSE FALSE FALSE FALSE FALSE FALSE FALSE FALSE FALSE FALSE FALSE FALSE FALSE FALSE FALSE FALSE FALSE FALSE FALSE FALSE FALSE FALSE FALSE FALSE
c __CPROVER_rounding_mode!0#1 FALSE FALSE FALSE FALSE FALSE FALSE FALSE FALSE FALSE FALSE FALSE FALSE FALSE FALSE FALSE FALSE FALSE FALSE FALSE FALSE FALSE FALSE FALSE FALSE FALSE FALSE FALSE FALSE FALSE FALSE FALSE FALSE
c __CPROVER_thread_id!0#1 FALSE FALSE FALSE FALSE FALSE FALSE FALSE FALSE FALSE FALSE FALSE FALSE FALSE FALSE FALSE FALSE FALSE FALSE FALSE FALSE FALSE FALSE FALSE FALSE FALSE FALSE FALSE FALSE FALSE FALSE FALSE FALSE
c ind 1 2 3 4 5 6 7 8 9 10 0
c ind 11 12 13 14 15 16 17 18 19 20 0
c ind 21 22 23 24 25 26 27 28 29 30 0
c ind 31 32 0
cr 1 2 3 4 5 6 7 8 9 10 11 12 13 14 15 16 17 18 19 20 21 22 23 24 25 26 27 28 29 30 31 32
